
List of user-set options:

                                    Name   Value                used
                           linear_solver = ma57                  yes
                  ma57_automatic_scaling = yes                   yes
                                max_iter = 500                   yes
                             mu_strategy = adaptive              yes
                             output_file = Reusable-Launch-Vehicle-Entry-ProblemIPOPTinfo.txt  yes
                             print_level = 5                     yes
                      print_user_options = yes                   yes
                                     tol = 1e-007                yes
This is Ipopt version 3.11.0, running with linear solver ma57.

Number of nonzeros in equality constraint Jacobian...:     4422
Number of nonzeros in inequality constraint Jacobian.:      709
Number of nonzeros in Lagrangian Hessian.............:     2285

Reallocating memory for MA57: lfact (40288)
Total number of variables............................:      556
                     variables with only lower bounds:        0
                variables with lower and upper bounds:      556
                     variables with only upper bounds:        0
Total number of equality constraints.................:      474
Total number of inequality constraints...............:      159
        inequality constraints with only lower bounds:        0
   inequality constraints with lower and upper bounds:      159
        inequality constraints with only upper bounds:        0

iter    objective    inf_pr   inf_du lg(mu)  ||d||  lg(rg) alpha_du alpha_pr  ls
   0 -1.7280120e+002 1.31e+000 5.06e+000   0.0 0.00e+000    -  0.00e+000 0.00e+000   0
   1 -1.7277830e+002 7.82e-001 1.16e+005  -0.7 1.92e-001   4.0 9.92e-001 4.79e-002h  1
   2 -1.7282211e+002 5.21e-001 9.89e+006   0.1 2.74e-001   3.5 1.00e+000 6.32e-002h  1
   3 -1.7299280e+002 3.47e-001 3.35e+006   0.3 3.19e-001   3.0 1.00e+000 3.35e-001h  1
   4 -1.7321075e+002 2.44e-001 4.91e+006   0.2 2.16e-001   2.6 4.49e-001 2.97e-001h  1
   5 -1.7313926e+002 2.38e-001 1.92e+007   0.3 4.08e-001   3.9 1.57e-001 2.47e-002h  1
   6 -1.7317345e+002 2.14e-001 3.95e+007  -0.0 2.45e-001   3.4 1.00e+000 1.01e-001h  1
   7 -1.7297746e+002 2.00e-001 3.93e+007   1.4 1.03e+001    -  3.43e-002 6.62e-002f  1
   8 -1.7295932e+002 1.91e-001 2.00e+008   0.2 8.11e-002   4.7 9.87e-001 4.54e-002h  1
   9 -1.7263293e+002 1.62e-001 4.09e+008   1.3 2.72e-001   4.3 1.00e+000 1.49e-001h  1
iter    objective    inf_pr   inf_du lg(mu)  ||d||  lg(rg) alpha_du alpha_pr  ls
  10 -1.6928757e+002 1.07e-001 2.51e+008   1.6 2.48e+000    -  3.68e-001 3.29e-001f  1
  11 -1.6922001e+002 8.13e-002 4.93e+007   1.2 1.49e+000    -  6.96e-001 2.40e-001f  1
  12 -1.6914068e+002 6.65e-002 5.74e+007   1.0 2.07e-001   3.8 6.27e-001 1.82e-001h  1
  13 -1.6912468e+002 6.54e-002 5.92e+007  -4.9 1.32e-001   3.3 1.32e-001 1.63e-002h  1
  14 -1.6899218e+002 9.98e-003 1.08e+007   0.7 5.00e-001   2.8 7.82e-001 1.00e+000f  1
  15 -1.6900013e+002 9.91e-003 1.31e+008   1.1 7.41e-001   2.4 1.00e+000 4.39e-003h  1
  16 -1.7108433e+002 1.04e-002 6.48e+009   2.5 2.49e+001   1.9 1.00e+000 1.52e-002f  1
  17 -1.7130325e+002 1.68e-001 1.04e+010  -3.5 1.94e+001   3.2 1.72e-002 4.26e-002f  1
  18 -1.7074161e+002 1.14e-001 3.77e+009   2.9 9.01e-002   6.4 1.00e+000 4.45e-001f  1
  19 -1.7077872e+002 1.07e-001 4.17e+009   2.8 4.27e-001   5.9 3.46e-002 3.04e-001f  1
iter    objective    inf_pr   inf_du lg(mu)  ||d||  lg(rg) alpha_du alpha_pr  ls
  20 -1.7133695e+002 9.86e-002 3.68e+009   2.8 6.84e-001   5.4 1.60e-002 1.14e-001h  1
  21 -1.7064439e+002 8.53e-002 3.23e+009   3.4 3.31e-001   6.7 1.70e-001 1.28e-001f  1
  22 -1.7064610e+002 8.51e-002 3.52e+010   2.9 2.86e-001   7.2 3.33e-001 1.33e-003h  1
  23 -1.7063382e+002 8.49e-002 9.83e+009   2.9 1.53e+000   6.7 5.03e-002 1.09e-002f  3
  24 -1.7073301e+002 7.34e-002 5.14e+010   2.9 5.98e-001   6.2 1.72e-003 2.39e-001f  1
  25 -1.7066340e+002 6.63e-002 3.11e+010   2.9 4.01e-001   6.6 1.47e-002 3.87e-001f  1
  26 -1.7092720e+002 5.69e-002 2.55e+010   2.9 2.26e-001   8.0 8.59e-003 1.78e-001h  1
  27 -1.7092944e+002 5.69e-002 9.67e+010   2.9 1.91e-001   8.4 9.62e-001 7.90e-004h  1
  28 -1.7111546e+002 6.78e-002 5.35e+010   2.9 2.99e-001   7.9 9.46e-002 1.83e-001h  1
  29 -1.7110095e+002 2.31e-001 3.50e+010   3.4 2.70e-001   7.4 4.75e-001 7.88e-001f  1
iter    objective    inf_pr   inf_du lg(mu)  ||d||  lg(rg) alpha_du alpha_pr  ls
  30 -1.7040785e+002 1.58e-001 2.89e+010   3.1 1.90e-001   6.9 1.90e-002 1.60e-001h  1
  31 -1.7082036e+002 1.53e-001 8.17e+009   3.1 4.53e-001   8.3 3.27e-002 4.74e-002h  1
  32 -1.7097357e+002 1.46e-001 1.65e+012   2.4 2.67e-001   8.7 9.31e-001 7.14e-002h  1
  33 -1.7075946e+002 1.13e-001 1.69e+012   2.4 1.23e-001   8.2 1.99e-003 2.02e-001f  1
  34 -1.7082313e+002 1.04e-001 2.85e+010   2.4 1.18e-001   8.7 1.00e+000 1.05e-001h  1
  35 -1.7071715e+002 8.77e-002 6.88e+010   2.4 2.01e-001   8.2 6.70e-002 5.76e-001f  1
  36 -1.7201305e+002 8.22e-002 1.61e+011   2.4 2.21e-001   8.6 8.47e-003 3.78e-001f  1
  37 -1.7207195e+002 7.17e-002 2.18e+010   2.2 1.01e-001   8.1 1.00e+000 5.12e-001h  1
  38 -1.7208064e+002 7.17e-002 5.32e+012   2.4 1.27e+000   7.6 4.40e-001 5.89e-004h  1
  39 -1.7282117e+002 2.40e-002 4.56e+012   3.4 2.90e+000   7.2 2.96e-003 8.03e-002f  1
iter    objective    inf_pr   inf_du lg(mu)  ||d||  lg(rg) alpha_du alpha_pr  ls
  40 -1.7297332e+002 4.39e-002 4.58e+012   3.4 6.06e+000   6.7 1.32e-002 1.64e-002f  1
  41 -1.7303767e+002 4.95e-002 4.55e+012   3.4 9.44e+000   7.1 7.26e-003 7.26e-003s 15
  42 -1.7318587e+002 4.92e-002 4.45e+012   3.4 6.14e+002   6.6 1.58e-004 1.12e-004h  1
  43 -1.7318659e+002 4.92e-002 6.03e+011   3.4 1.36e+001   7.1 2.08e-002 6.50e-005h  1
  44 -1.7363308e+002 5.28e-002 8.98e+011  -3.5 1.03e+002   6.6 6.30e-005 8.62e-004f  1
  45 -1.7363284e+002 5.28e-002 1.02e+012   3.4 6.92e-002   8.8 7.87e-002 2.73e-004h  1
  46 -1.6802842e+002 5.85e-003 7.37e+012   3.4 7.30e+000   8.3 5.80e-005 4.12e-002f  1
  47 -1.6830020e+002 5.67e-003 7.26e+012   2.6 5.81e-001   8.8 1.50e-002 2.78e-002h  1
  48 -1.6829988e+002 5.67e-003 8.94e+012   2.6 4.11e-002   9.2 1.00e+000 6.96e-004h  1
  49 -1.6838158e+002 5.63e-003 1.74e+013   2.6 4.73e+000   8.7 4.94e-002 6.87e-003h  1
iter    objective    inf_pr   inf_du lg(mu)  ||d||  lg(rg) alpha_du alpha_pr  ls
  50 -1.6833721e+002 5.61e-003 1.73e+013   2.6 1.72e+001   8.2 4.18e-003 3.97e-003f  3
  51 -1.6842097e+002 5.54e-003 1.60e+013   2.6 1.63e+000   8.7 1.46e-001 1.07e-002f  4
  52 -1.6845655e+002 5.52e-003 1.60e+013   2.6 3.14e+000   8.2 1.31e-003 4.87e-003f  4
  53r-1.6845655e+002 5.52e-003 9.83e+002   2.6 0.00e+000   8.6 0.00e+000 4.26e-007R  4
  54r-1.6845762e+002 4.04e-003 1.82e+001  -3.5 3.71e-001    -  9.81e-001 9.86e-001f  1
  55 -1.6843178e+002 4.03e-003 1.78e+003   1.9 1.35e+005    -  7.47e-006 5.22e-008f  2
  56 -1.6647540e+002 5.86e-002 1.51e+004   1.9 5.32e+004    -  3.66e-005 1.35e-005f  1
  57 -1.6647496e+002 5.85e-002 1.17e+010   1.9 5.18e-002   8.1 1.00e+000 3.20e-004h  1
  58 -1.7411950e+002 1.17e-002 1.11e+010   1.9 2.21e+001    -  4.98e-002 1.34e-001f  1
  59 -1.7434529e+002 1.46e-002 1.13e+010  -4.1 7.05e+001    -  3.24e-003 1.25e-002f  1
iter    objective    inf_pr   inf_du lg(mu)  ||d||  lg(rg) alpha_du alpha_pr  ls
  60 -1.7434107e+002 1.46e-002 2.94e+010  -4.1 4.02e+000   7.7 7.99e-004 2.99e-004h  1
  61 -1.7432647e+002 1.47e-002 2.52e+010   3.4 4.06e+000   7.2 3.08e-005 4.09e-004h  1
  62 -1.7430136e+002 1.48e-002 2.52e+010   3.4 6.65e+000   6.7 1.08e-004 2.99e-004f  1
  63 -1.7432229e+002 1.48e-002 2.95e+010   2.6 6.21e+001   6.2 4.29e-005 1.61e-004f  1
  64 -1.7432167e+002 1.48e-002 2.98e+010   1.8 4.81e+000   6.7 3.67e-004 1.06e-005h  1
  65 -1.7432867e+002 1.48e-002 3.02e+010   1.8 2.75e+001   6.2 5.18e-005 8.37e-005f  3
  66 -1.7399615e+002 2.99e-002 2.85e+010   1.4 6.05e+000   6.6 3.42e-003 5.65e-003f  1
  67 -1.7403996e+002 2.95e-002 3.03e+010   1.8 1.61e+001   6.1 1.72e-005 1.83e-004h  1
  68 -1.7404432e+002 2.94e-002 1.96e+012   1.8 2.75e+000   7.5 2.28e-001 4.69e-004h  1
  69 -1.7390282e+002 2.52e-002 1.99e+012   1.8 8.05e+000   7.0 4.10e-004 2.93e-003f  2
iter    objective    inf_pr   inf_du lg(mu)  ||d||  lg(rg) alpha_du alpha_pr  ls
  70 -1.7428929e+002 2.47e-002 1.96e+012   1.8 4.70e+000   6.5 1.26e-002 7.18e-003h  1
  71 -1.7429123e+002 2.47e-002 4.08e+011   2.9 7.01e-001   6.9 1.00e+000 2.90e-004h  1
  72 -1.7534831e+002 1.50e-001 3.88e+011   3.4 4.12e+000   6.5 4.22e-002 3.54e-002f  1
  73 -1.7536226e+002 1.50e-001 3.82e+011   3.4 8.23e+000   6.0 1.74e-003 9.19e-004h  1
  74 -1.7536065e+002 1.50e-001 3.76e+011   3.4 1.65e+001   7.3 6.16e-004 2.56e-005h  1
